
Gurobi 10.0.1 (win64) logging started Sat Dec 30 18:33:54 2023

Set parameter LogFile to value "outputs/THESIS/symmetry1/gurobi/10weeks_ramping.txt"

Gurobi 10.0.1 (win64) logging started Sat Dec 30 18:33:59 2023

Set parameter LogFile to value "outputs/THESIS/symmetry1/gurobi/10weeks_ramping.txt"
Gurobi Optimizer version 10.0.1 build v10.0.1rc0 (win64)

CPU model: AMD Ryzen 7 5700U with Radeon Graphics, instruction set [SSE2|AVX|AVX2]
Thread count: 8 physical cores, 16 logical processors, using up to 16 threads

Optimize a model with 572668 rows, 287389 columns and 2012107 nonzeros
Model fingerprint: 0xea791003
Coefficient statistics:
  Matrix range     [1e-04, 1e+04]
  Objective range  [1e+00, 1e+00]
  Bounds range     [1e+02, 7e+04]
  RHS range        [1e+03, 7e+04]
Presolve removed 2 rows and 2 columns
Presolve time: 0.96s
Presolved: 572666 rows, 287387 columns, 1798638 nonzeros

Ordering time: 1.05s

Barrier statistics:
 Dense cols : 20
 AA' NZ     : 6.447e+05
 Factor NZ  : 4.101e+06 (roughly 140 MB of memory)
 Factor Ops : 2.549e+08 (less than 1 second per iteration)
 Threads    : 8

                  Objective                Residual
Iter       Primal          Dual         Primal    Dual     Compl     Time
   0   3.92958967e+09 -2.60229733e+10  2.23e+04 9.42e+00  9.21e+05     3s
   1   9.64477065e+08 -1.95778257e+10  1.77e+03 2.13e+01  1.19e+05     3s
   2   6.97636209e+08 -3.44632027e+09  9.09e-12 1.41e+00  1.37e+04     3s
   3   1.88370980e+08 -1.31013690e+08  2.69e-10 6.36e-03  9.57e+02     3s
   4   3.60956792e+07 -5.33549600e+06  4.00e-11 1.52e-05  1.20e+02     3s
   5   2.75276413e+07  1.47557978e+06  2.31e-10 1.11e-14  7.51e+01     4s
   6   2.18391221e+07  5.26427332e+06  7.02e-10 9.84e-15  4.77e+01     4s
   7   2.00237008e+07  5.92062630e+06  1.18e-09 1.03e-14  4.06e+01     4s
   8   1.75585609e+07  8.22019653e+06  9.14e-09 9.91e-15  2.68e+01     4s
   9   1.63558500e+07  8.95546629e+06  6.43e-09 8.98e-15  2.12e+01     4s
  10   1.61379881e+07  9.18383975e+06  1.71e-08 9.45e-15  2.00e+01     4s
  11   1.52254526e+07  9.70901526e+06  2.40e-08 8.94e-15  1.58e+01     4s
  12   1.47384339e+07  1.00036284e+07  6.63e-08 8.75e-15  1.36e+01     4s
  13   1.42740324e+07  1.02209320e+07  1.05e-07 8.38e-15  1.16e+01     4s
  14   1.41774045e+07  1.04716413e+07  1.40e-07 9.84e-15  1.06e+01     4s
  15   1.36622413e+07  1.06417381e+07  1.08e-07 9.84e-15  8.67e+00     5s
  16   1.34007566e+07  1.09875709e+07  1.27e-07 8.91e-15  6.93e+00     5s
  17   1.32997912e+07  1.10986001e+07  1.09e-07 9.75e-15  6.32e+00     5s
  18   1.31384456e+07  1.12957686e+07  9.13e-08 9.12e-15  5.29e+00     5s
  19   1.30365534e+07  1.14570220e+07  2.23e-07 9.27e-15  4.53e+00     5s
  20   1.29308170e+07  1.15690705e+07  1.32e-07 9.46e-15  3.91e+00     5s
  21   1.27765945e+07  1.17401335e+07  2.56e-07 8.91e-15  2.98e+00     5s
  22   1.27352916e+07  1.18960800e+07  1.02e-07 8.04e-15  2.41e+00     5s
  23   1.26486037e+07  1.20202693e+07  6.09e-08 9.34e-15  1.80e+00     6s
  24   1.26230797e+07  1.20953561e+07  2.21e-07 8.99e-15  1.51e+00     6s
  25   1.25470061e+07  1.21646658e+07  2.01e-07 8.47e-15  1.10e+00     6s
  26   1.25018024e+07  1.21849328e+07  1.04e-07 9.90e-15  9.10e-01     6s
  27   1.24867857e+07  1.22401250e+07  7.13e-08 8.93e-15  7.08e-01     6s
  28   1.24766588e+07  1.22790183e+07  9.09e-08 8.98e-15  5.67e-01     6s
  29   1.24504632e+07  1.23302228e+07  2.13e-07 9.57e-15  3.45e-01     6s
  30   1.24287774e+07  1.23438116e+07  9.85e-07 1.05e-14  2.44e-01     6s
  31   1.24073682e+07  1.23529776e+07  1.52e-06 8.73e-15  1.56e-01     6s
  32   1.23932967e+07  1.23657605e+07  7.62e-07 9.51e-15  7.89e-02     7s
  33   1.23865095e+07  1.23668495e+07  7.01e-07 2.05e-14  5.64e-02     7s
  34   1.23842288e+07  1.23706080e+07  7.09e-07 1.11e-14  3.91e-02     7s
  35   1.23818157e+07  1.23721604e+07  7.52e-07 9.56e-15  2.77e-02     7s
  36   1.23813638e+07  1.23738710e+07  7.05e-07 8.58e-15  2.15e-02     7s
  37   1.23794472e+07  1.23755166e+07  4.51e-07 9.27e-15  1.13e-02     7s
  38   1.23782052e+07  1.23756521e+07  2.37e-07 9.41e-15  7.32e-03     7s
  39   1.23780882e+07  1.23756693e+07  2.17e-07 1.07e-14  6.94e-03     7s
  40   1.23779189e+07  1.23758992e+07  1.89e-07 1.03e-14  5.79e-03     7s
  41   1.23776907e+07  1.23761455e+07  1.52e-07 9.35e-15  4.43e-03     7s
  42   1.23776654e+07  1.23762570e+07  1.45e-07 8.88e-15  4.04e-03     7s
  43   1.23774772e+07  1.23766623e+07  1.07e-07 1.18e-14  2.33e-03     7s
  44   1.23771292e+07  1.23768376e+07  3.71e-08 1.12e-14  8.35e-04     8s
  45   1.23769484e+07  1.23769098e+07  3.82e-09 1.13e-14  1.11e-04     8s
  46   1.23769273e+07  1.23769198e+07  7.52e-10 1.09e-14  2.14e-05     8s
  47   1.23769230e+07  1.23769211e+07  1.84e-10 6.53e-12  5.55e-06     8s
  48   1.23769217e+07  1.23769215e+07  1.73e-11 7.25e-12  5.76e-07     8s
  49   1.23769216e+07  1.23769216e+07  2.58e-10 2.12e-11  1.53e-09     8s
  50   1.23769216e+07  1.23769216e+07  1.11e-10 2.09e-11  4.55e-15     8s

Barrier solved model in 50 iterations and 8.27 seconds (5.51 work units)
Optimal objective 1.23769216e+07

Crossover log...

    8130 DPushes remaining with DInf 0.0000000e+00                 8s
       0 DPushes remaining with DInf 0.0000000e+00                 9s

    1268 PPushes remaining with PInf 0.0000000e+00                 9s
       0 PPushes remaining with PInf 0.0000000e+00                 9s

  Push phase complete: Pinf 0.0000000e+00, Dinf 1.3698448e-10      9s

Iteration    Objective       Primal Inf.    Dual Inf.      Time
    6588    1.2376922e+07   0.000000e+00   0.000000e+00      9s

Use crossover to convert LP symmetric solution to basic solution...
Crossover log...

       0 DPushes remaining with DInf 0.0000000e+00                 9s

  108332 PPushes remaining with PInf 0.0000000e+00                 9s
   27534 PPushes remaining with PInf 0.0000000e+00                10s
       0 PPushes remaining with PInf 0.0000000e+00                13s

  Push phase complete: Pinf 0.0000000e+00, Dinf 7.1229458e-11     13s

Iteration    Objective       Primal Inf.    Dual Inf.      Time
  114923    1.2376922e+07   0.000000e+00   0.000000e+00     13s

Solved in 114923 iterations and 13.37 seconds (11.17 work units)
Optimal objective  1.237692157e+07

User-callback calls 118725, time in user-callback 0.02 sec

Gurobi 10.0.1 (win64) logging started Sat Dec 30 18:34:15 2023

Set parameter LogFile to value "outputs/THESIS/symmetry1/gurobi/10weeks_ramping.txt"

Gurobi 10.0.1 (win64) logging started Sat Dec 30 18:34:20 2023

Set parameter LogFile to value "outputs/THESIS/symmetry1/gurobi/10weeks_ramping.txt"
Gurobi Optimizer version 10.0.1 build v10.0.1rc0 (win64)

CPU model: AMD Ryzen 7 5700U with Radeon Graphics, instruction set [SSE2|AVX|AVX2]
Thread count: 8 physical cores, 16 logical processors, using up to 16 threads

Optimize a model with 572668 rows, 287389 columns and 2012107 nonzeros
Model fingerprint: 0xea791003
Coefficient statistics:
  Matrix range     [1e-04, 1e+04]
  Objective range  [1e+00, 1e+00]
  Bounds range     [1e+02, 7e+04]
  RHS range        [1e+03, 7e+04]
Presolve removed 2 rows and 2 columns
Presolve time: 0.96s
Presolved: 572666 rows, 287387 columns, 1798638 nonzeros

Ordering time: 1.04s

Barrier statistics:
 Dense cols : 20
 AA' NZ     : 6.447e+05
 Factor NZ  : 4.101e+06 (roughly 140 MB of memory)
 Factor Ops : 2.549e+08 (less than 1 second per iteration)
 Threads    : 8

                  Objective                Residual
Iter       Primal          Dual         Primal    Dual     Compl     Time
   0   3.92958967e+09 -2.60229733e+10  2.23e+04 9.42e+00  9.21e+05     3s
   1   9.64477065e+08 -1.95778257e+10  1.77e+03 2.13e+01  1.19e+05     3s
   2   6.97636209e+08 -3.44632027e+09  9.09e-12 1.41e+00  1.37e+04     3s
   3   1.88370980e+08 -1.31013690e+08  2.69e-10 6.36e-03  9.57e+02     3s
   4   3.60956792e+07 -5.33549600e+06  4.00e-11 1.52e-05  1.20e+02     3s
   5   2.75276413e+07  1.47557978e+06  2.31e-10 1.11e-14  7.51e+01     3s
   6   2.18391221e+07  5.26427332e+06  7.02e-10 9.84e-15  4.77e+01     4s
   7   2.00237008e+07  5.92062630e+06  1.18e-09 1.03e-14  4.06e+01     4s
   8   1.75585609e+07  8.22019653e+06  9.14e-09 9.91e-15  2.68e+01     4s
   9   1.63558500e+07  8.95546629e+06  6.43e-09 8.98e-15  2.12e+01     4s
  10   1.61379881e+07  9.18383975e+06  1.71e-08 9.45e-15  2.00e+01     4s
  11   1.52254526e+07  9.70901526e+06  2.40e-08 8.94e-15  1.58e+01     4s
  12   1.47384339e+07  1.00036284e+07  6.63e-08 8.75e-15  1.36e+01     4s
  13   1.42740324e+07  1.02209320e+07  1.05e-07 8.38e-15  1.16e+01     4s
  14   1.41774045e+07  1.04716413e+07  1.40e-07 9.84e-15  1.06e+01     4s
  15   1.36622413e+07  1.06417381e+07  1.08e-07 9.84e-15  8.67e+00     4s
  16   1.34007566e+07  1.09875709e+07  1.27e-07 8.91e-15  6.93e+00     5s
  17   1.32997912e+07  1.10986001e+07  1.09e-07 9.75e-15  6.32e+00     5s
  18   1.31384456e+07  1.12957686e+07  9.13e-08 9.12e-15  5.29e+00     5s
  19   1.30365534e+07  1.14570220e+07  2.23e-07 9.27e-15  4.53e+00     5s
  20   1.29308170e+07  1.15690705e+07  1.32e-07 9.46e-15  3.91e+00     5s
  21   1.27765945e+07  1.17401335e+07  2.56e-07 8.91e-15  2.98e+00     5s
  22   1.27352916e+07  1.18960800e+07  1.02e-07 8.04e-15  2.41e+00     5s
  23   1.26486037e+07  1.20202693e+07  6.09e-08 9.34e-15  1.80e+00     5s
  24   1.26230797e+07  1.20953561e+07  2.21e-07 8.99e-15  1.51e+00     6s
  25   1.25470061e+07  1.21646658e+07  2.01e-07 8.47e-15  1.10e+00     6s
  26   1.25018024e+07  1.21849328e+07  1.04e-07 9.90e-15  9.10e-01     6s
  27   1.24867857e+07  1.22401250e+07  7.13e-08 8.93e-15  7.08e-01     6s
  28   1.24766588e+07  1.22790183e+07  9.09e-08 8.98e-15  5.67e-01     6s
  29   1.24504632e+07  1.23302228e+07  2.13e-07 9.57e-15  3.45e-01     6s
  30   1.24287774e+07  1.23438116e+07  9.85e-07 1.05e-14  2.44e-01     6s
  31   1.24073682e+07  1.23529776e+07  1.52e-06 8.73e-15  1.56e-01     6s
  32   1.23932967e+07  1.23657605e+07  7.62e-07 9.51e-15  7.89e-02     6s
  33   1.23865095e+07  1.23668495e+07  7.01e-07 2.05e-14  5.64e-02     7s
  34   1.23842288e+07  1.23706080e+07  7.09e-07 1.11e-14  3.91e-02     7s
  35   1.23818157e+07  1.23721604e+07  7.52e-07 9.56e-15  2.77e-02     7s
  36   1.23813638e+07  1.23738710e+07  7.05e-07 8.58e-15  2.15e-02     7s
  37   1.23794472e+07  1.23755166e+07  4.51e-07 9.27e-15  1.13e-02     7s
  38   1.23782052e+07  1.23756521e+07  2.37e-07 9.41e-15  7.32e-03     7s
  39   1.23780882e+07  1.23756693e+07  2.17e-07 1.07e-14  6.94e-03     7s
  40   1.23779189e+07  1.23758992e+07  1.89e-07 1.03e-14  5.79e-03     7s
  41   1.23776907e+07  1.23761455e+07  1.52e-07 9.35e-15  4.43e-03     7s
  42   1.23776654e+07  1.23762570e+07  1.45e-07 8.88e-15  4.04e-03     7s
  43   1.23774772e+07  1.23766623e+07  1.07e-07 1.18e-14  2.33e-03     7s
  44   1.23771292e+07  1.23768376e+07  3.71e-08 1.12e-14  8.35e-04     8s
  45   1.23769484e+07  1.23769098e+07  3.82e-09 1.13e-14  1.11e-04     8s
  46   1.23769273e+07  1.23769198e+07  7.52e-10 1.09e-14  2.14e-05     8s
  47   1.23769230e+07  1.23769211e+07  1.84e-10 6.53e-12  5.55e-06     8s
  48   1.23769217e+07  1.23769215e+07  1.73e-11 7.25e-12  5.76e-07     8s
  49   1.23769216e+07  1.23769216e+07  2.58e-10 2.12e-11  1.53e-09     8s
  50   1.23769216e+07  1.23769216e+07  1.11e-10 2.09e-11  4.55e-15     8s

Barrier solved model in 50 iterations and 8.21 seconds (5.51 work units)
Optimal objective 1.23769216e+07

Crossover log...

    8130 DPushes remaining with DInf 0.0000000e+00                 8s
       0 DPushes remaining with DInf 0.0000000e+00                 9s

    1268 PPushes remaining with PInf 0.0000000e+00                 9s
       0 PPushes remaining with PInf 0.0000000e+00                 9s

  Push phase complete: Pinf 0.0000000e+00, Dinf 1.3698448e-10      9s

Iteration    Objective       Primal Inf.    Dual Inf.      Time
    6588    1.2376922e+07   0.000000e+00   0.000000e+00      9s

Use crossover to convert LP symmetric solution to basic solution...
Crossover log...

       0 DPushes remaining with DInf 0.0000000e+00                 9s

  108332 PPushes remaining with PInf 0.0000000e+00                 9s
   27534 PPushes remaining with PInf 0.0000000e+00                10s
       0 PPushes remaining with PInf 0.0000000e+00                13s

  Push phase complete: Pinf 0.0000000e+00, Dinf 7.1229458e-11     13s

Iteration    Objective       Primal Inf.    Dual Inf.      Time
  114923    1.2376922e+07   0.000000e+00   0.000000e+00     13s

Solved in 114923 iterations and 13.35 seconds (11.17 work units)
Optimal objective  1.237692157e+07

User-callback calls 118681, time in user-callback 0.02 sec

Gurobi 10.0.1 (win64) logging started Sat Dec 30 18:34:36 2023

Set parameter LogFile to value "outputs/THESIS/symmetry1/gurobi/10weeks_ramping.txt"

Gurobi 10.0.1 (win64) logging started Sat Dec 30 18:34:41 2023

Set parameter LogFile to value "outputs/THESIS/symmetry1/gurobi/10weeks_ramping.txt"
Gurobi Optimizer version 10.0.1 build v10.0.1rc0 (win64)

CPU model: AMD Ryzen 7 5700U with Radeon Graphics, instruction set [SSE2|AVX|AVX2]
Thread count: 8 physical cores, 16 logical processors, using up to 16 threads

Optimize a model with 572668 rows, 287389 columns and 2012107 nonzeros
Model fingerprint: 0xea791003
Coefficient statistics:
  Matrix range     [1e-04, 1e+04]
  Objective range  [1e+00, 1e+00]
  Bounds range     [1e+02, 7e+04]
  RHS range        [1e+03, 7e+04]
Presolve removed 2 rows and 2 columns
Presolve time: 0.97s
Presolved: 572666 rows, 287387 columns, 1798638 nonzeros

Ordering time: 1.05s

Barrier statistics:
 Dense cols : 20
 AA' NZ     : 6.447e+05
 Factor NZ  : 4.101e+06 (roughly 140 MB of memory)
 Factor Ops : 2.549e+08 (less than 1 second per iteration)
 Threads    : 8

                  Objective                Residual
Iter       Primal          Dual         Primal    Dual     Compl     Time
   0   3.92958967e+09 -2.60229733e+10  2.23e+04 9.42e+00  9.21e+05     3s
   1   9.64477065e+08 -1.95778257e+10  1.77e+03 2.13e+01  1.19e+05     3s
   2   6.97636209e+08 -3.44632027e+09  9.09e-12 1.41e+00  1.37e+04     3s
   3   1.88370980e+08 -1.31013690e+08  2.69e-10 6.36e-03  9.57e+02     3s
   4   3.60956792e+07 -5.33549600e+06  4.00e-11 1.52e-05  1.20e+02     3s
   5   2.75276413e+07  1.47557978e+06  2.31e-10 1.11e-14  7.51e+01     4s
   6   2.18391221e+07  5.26427332e+06  7.02e-10 9.84e-15  4.77e+01     4s
   7   2.00237008e+07  5.92062630e+06  1.18e-09 1.03e-14  4.06e+01     4s
   8   1.75585609e+07  8.22019653e+06  9.14e-09 9.91e-15  2.68e+01     4s
   9   1.63558500e+07  8.95546629e+06  6.43e-09 8.98e-15  2.12e+01     4s
  10   1.61379881e+07  9.18383975e+06  1.71e-08 9.45e-15  2.00e+01     4s
  11   1.52254526e+07  9.70901526e+06  2.40e-08 8.94e-15  1.58e+01     4s
  12   1.47384339e+07  1.00036284e+07  6.63e-08 8.75e-15  1.36e+01     4s
  13   1.42740324e+07  1.02209320e+07  1.05e-07 8.38e-15  1.16e+01     4s
  14   1.41774045e+07  1.04716413e+07  1.40e-07 9.84e-15  1.06e+01     4s
  15   1.36622413e+07  1.06417381e+07  1.08e-07 9.84e-15  8.67e+00     5s
  16   1.34007566e+07  1.09875709e+07  1.27e-07 8.91e-15  6.93e+00     5s
  17   1.32997912e+07  1.10986001e+07  1.09e-07 9.75e-15  6.32e+00     5s
  18   1.31384456e+07  1.12957686e+07  9.13e-08 9.12e-15  5.29e+00     5s
  19   1.30365534e+07  1.14570220e+07  2.23e-07 9.27e-15  4.53e+00     5s
  20   1.29308170e+07  1.15690705e+07  1.32e-07 9.46e-15  3.91e+00     5s
  21   1.27765945e+07  1.17401335e+07  2.56e-07 8.91e-15  2.98e+00     5s
  22   1.27352916e+07  1.18960800e+07  1.02e-07 8.04e-15  2.41e+00     5s
  23   1.26486037e+07  1.20202693e+07  6.09e-08 9.34e-15  1.80e+00     6s
  24   1.26230797e+07  1.20953561e+07  2.21e-07 8.99e-15  1.51e+00     6s
  25   1.25470061e+07  1.21646658e+07  2.01e-07 8.47e-15  1.10e+00     6s
  26   1.25018024e+07  1.21849328e+07  1.04e-07 9.90e-15  9.10e-01     6s
  27   1.24867857e+07  1.22401250e+07  7.13e-08 8.93e-15  7.08e-01     6s
  28   1.24766588e+07  1.22790183e+07  9.09e-08 8.98e-15  5.67e-01     6s
  29   1.24504632e+07  1.23302228e+07  2.13e-07 9.57e-15  3.45e-01     6s
  30   1.24287774e+07  1.23438116e+07  9.85e-07 1.05e-14  2.44e-01     6s
  31   1.24073682e+07  1.23529776e+07  1.52e-06 8.73e-15  1.56e-01     6s
  32   1.23932967e+07  1.23657605e+07  7.62e-07 9.51e-15  7.89e-02     7s
  33   1.23865095e+07  1.23668495e+07  7.01e-07 2.05e-14  5.64e-02     7s
  34   1.23842288e+07  1.23706080e+07  7.09e-07 1.11e-14  3.91e-02     7s
  35   1.23818157e+07  1.23721604e+07  7.52e-07 9.56e-15  2.77e-02     7s
  36   1.23813638e+07  1.23738710e+07  7.05e-07 8.58e-15  2.15e-02     7s
  37   1.23794472e+07  1.23755166e+07  4.51e-07 9.27e-15  1.13e-02     7s
  38   1.23782052e+07  1.23756521e+07  2.37e-07 9.41e-15  7.32e-03     7s
  39   1.23780882e+07  1.23756693e+07  2.17e-07 1.07e-14  6.94e-03     7s
  40   1.23779189e+07  1.23758992e+07  1.89e-07 1.03e-14  5.79e-03     7s
  41   1.23776907e+07  1.23761455e+07  1.52e-07 9.35e-15  4.43e-03     7s
  42   1.23776654e+07  1.23762570e+07  1.45e-07 8.88e-15  4.04e-03     7s
  43   1.23774772e+07  1.23766623e+07  1.07e-07 1.18e-14  2.33e-03     8s
  44   1.23771292e+07  1.23768376e+07  3.71e-08 1.12e-14  8.35e-04     8s
  45   1.23769484e+07  1.23769098e+07  3.82e-09 1.13e-14  1.11e-04     8s
  46   1.23769273e+07  1.23769198e+07  7.52e-10 1.09e-14  2.14e-05     8s
  47   1.23769230e+07  1.23769211e+07  1.84e-10 6.53e-12  5.55e-06     8s
  48   1.23769217e+07  1.23769215e+07  1.73e-11 7.25e-12  5.76e-07     8s
  49   1.23769216e+07  1.23769216e+07  2.58e-10 2.12e-11  1.53e-09     8s
  50   1.23769216e+07  1.23769216e+07  1.11e-10 2.09e-11  4.55e-15     8s

Barrier solved model in 50 iterations and 8.31 seconds (5.51 work units)
Optimal objective 1.23769216e+07

Crossover log...

    8130 DPushes remaining with DInf 0.0000000e+00                 8s
       0 DPushes remaining with DInf 0.0000000e+00                 9s

    1268 PPushes remaining with PInf 0.0000000e+00                 9s
       0 PPushes remaining with PInf 0.0000000e+00                 9s

  Push phase complete: Pinf 0.0000000e+00, Dinf 1.3698448e-10      9s

Iteration    Objective       Primal Inf.    Dual Inf.      Time
    6588    1.2376922e+07   0.000000e+00   0.000000e+00      9s

Use crossover to convert LP symmetric solution to basic solution...
Crossover log...

       0 DPushes remaining with DInf 0.0000000e+00                 9s

  108332 PPushes remaining with PInf 0.0000000e+00                 9s
   27534 PPushes remaining with PInf 0.0000000e+00                10s
       0 PPushes remaining with PInf 0.0000000e+00                13s

  Push phase complete: Pinf 0.0000000e+00, Dinf 7.1229458e-11     13s

Iteration    Objective       Primal Inf.    Dual Inf.      Time
  114923    1.2376922e+07   0.000000e+00   0.000000e+00     13s

Solved in 114923 iterations and 13.45 seconds (11.17 work units)
Optimal objective  1.237692157e+07

User-callback calls 118732, time in user-callback 0.02 sec

Gurobi 10.0.1 (win64) logging started Sat Dec 30 18:34:57 2023

Set parameter LogFile to value "outputs/THESIS/symmetry1/gurobi/10weeks_ramping.txt"

Gurobi 10.0.1 (win64) logging started Sat Dec 30 18:35:01 2023

Set parameter LogFile to value "outputs/THESIS/symmetry1/gurobi/10weeks_ramping.txt"
Gurobi Optimizer version 10.0.1 build v10.0.1rc0 (win64)

CPU model: AMD Ryzen 7 5700U with Radeon Graphics, instruction set [SSE2|AVX|AVX2]
Thread count: 8 physical cores, 16 logical processors, using up to 16 threads

Optimize a model with 572668 rows, 287389 columns and 2012107 nonzeros
Model fingerprint: 0xea791003
Coefficient statistics:
  Matrix range     [1e-04, 1e+04]
  Objective range  [1e+00, 1e+00]
  Bounds range     [1e+02, 7e+04]
  RHS range        [1e+03, 7e+04]
Presolve removed 2 rows and 2 columns
Presolve time: 0.96s
Presolved: 572666 rows, 287387 columns, 1798638 nonzeros

Ordering time: 1.02s

Barrier statistics:
 Dense cols : 20
 AA' NZ     : 6.447e+05
 Factor NZ  : 4.101e+06 (roughly 140 MB of memory)
 Factor Ops : 2.549e+08 (less than 1 second per iteration)
 Threads    : 8

                  Objective                Residual
Iter       Primal          Dual         Primal    Dual     Compl     Time
   0   3.92958967e+09 -2.60229733e+10  2.23e+04 9.42e+00  9.21e+05     3s
   1   9.64477065e+08 -1.95778257e+10  1.77e+03 2.13e+01  1.19e+05     3s
   2   6.97636209e+08 -3.44632027e+09  9.09e-12 1.41e+00  1.37e+04     3s
   3   1.88370980e+08 -1.31013690e+08  2.69e-10 6.36e-03  9.57e+02     3s
   4   3.60956792e+07 -5.33549600e+06  4.00e-11 1.52e-05  1.20e+02     3s
   5   2.75276413e+07  1.47557978e+06  2.31e-10 1.11e-14  7.51e+01     3s
   6   2.18391221e+07  5.26427332e+06  7.02e-10 9.84e-15  4.77e+01     4s
   7   2.00237008e+07  5.92062630e+06  1.18e-09 1.03e-14  4.06e+01     4s
   8   1.75585609e+07  8.22019653e+06  9.14e-09 9.91e-15  2.68e+01     4s
   9   1.63558500e+07  8.95546629e+06  6.43e-09 8.98e-15  2.12e+01     4s
  10   1.61379881e+07  9.18383975e+06  1.71e-08 9.45e-15  2.00e+01     4s
  11   1.52254526e+07  9.70901526e+06  2.40e-08 8.94e-15  1.58e+01     4s
  12   1.47384339e+07  1.00036284e+07  6.63e-08 8.75e-15  1.36e+01     4s
  13   1.42740324e+07  1.02209320e+07  1.05e-07 8.38e-15  1.16e+01     4s
  14   1.41774045e+07  1.04716413e+07  1.40e-07 9.84e-15  1.06e+01     4s
  15   1.36622413e+07  1.06417381e+07  1.08e-07 9.84e-15  8.67e+00     4s
  16   1.34007566e+07  1.09875709e+07  1.27e-07 8.91e-15  6.93e+00     5s
  17   1.32997912e+07  1.10986001e+07  1.09e-07 9.75e-15  6.32e+00     5s
  18   1.31384456e+07  1.12957686e+07  9.13e-08 9.12e-15  5.29e+00     5s
  19   1.30365534e+07  1.14570220e+07  2.23e-07 9.27e-15  4.53e+00     5s
  20   1.29308170e+07  1.15690705e+07  1.32e-07 9.46e-15  3.91e+00     5s
  21   1.27765945e+07  1.17401335e+07  2.56e-07 8.91e-15  2.98e+00     5s
  22   1.27352916e+07  1.18960800e+07  1.02e-07 8.04e-15  2.41e+00     5s
  23   1.26486037e+07  1.20202693e+07  6.09e-08 9.34e-15  1.80e+00     5s
  24   1.26230797e+07  1.20953561e+07  2.21e-07 8.99e-15  1.51e+00     5s
  25   1.25470061e+07  1.21646658e+07  2.01e-07 8.47e-15  1.10e+00     6s
  26   1.25018024e+07  1.21849328e+07  1.04e-07 9.90e-15  9.10e-01     6s
  27   1.24867857e+07  1.22401250e+07  7.13e-08 8.93e-15  7.08e-01     6s
  28   1.24766588e+07  1.22790183e+07  9.09e-08 8.98e-15  5.67e-01     6s
  29   1.24504632e+07  1.23302228e+07  2.13e-07 9.57e-15  3.45e-01     6s
  30   1.24287774e+07  1.23438116e+07  9.85e-07 1.05e-14  2.44e-01     6s
  31   1.24073682e+07  1.23529776e+07  1.52e-06 8.73e-15  1.56e-01     6s
  32   1.23932967e+07  1.23657605e+07  7.62e-07 9.51e-15  7.89e-02     6s
  33   1.23865095e+07  1.23668495e+07  7.01e-07 2.05e-14  5.64e-02     6s
  34   1.23842288e+07  1.23706080e+07  7.09e-07 1.11e-14  3.91e-02     7s
  35   1.23818157e+07  1.23721604e+07  7.52e-07 9.56e-15  2.77e-02     7s
  36   1.23813638e+07  1.23738710e+07  7.05e-07 8.58e-15  2.15e-02     7s
  37   1.23794472e+07  1.23755166e+07  4.51e-07 9.27e-15  1.13e-02     7s
  38   1.23782052e+07  1.23756521e+07  2.37e-07 9.41e-15  7.32e-03     7s
  39   1.23780882e+07  1.23756693e+07  2.17e-07 1.07e-14  6.94e-03     7s
  40   1.23779189e+07  1.23758992e+07  1.89e-07 1.03e-14  5.79e-03     7s
  41   1.23776907e+07  1.23761455e+07  1.52e-07 9.35e-15  4.43e-03     7s
  42   1.23776654e+07  1.23762570e+07  1.45e-07 8.88e-15  4.04e-03     7s
  43   1.23774772e+07  1.23766623e+07  1.07e-07 1.18e-14  2.33e-03     7s
  44   1.23771292e+07  1.23768376e+07  3.71e-08 1.12e-14  8.35e-04     8s
  45   1.23769484e+07  1.23769098e+07  3.82e-09 1.13e-14  1.11e-04     8s
  46   1.23769273e+07  1.23769198e+07  7.52e-10 1.09e-14  2.14e-05     8s
  47   1.23769230e+07  1.23769211e+07  1.84e-10 6.53e-12  5.55e-06     8s
  48   1.23769217e+07  1.23769215e+07  1.73e-11 7.25e-12  5.76e-07     8s
  49   1.23769216e+07  1.23769216e+07  2.58e-10 2.12e-11  1.53e-09     8s
  50   1.23769216e+07  1.23769216e+07  1.11e-10 2.09e-11  4.55e-15     8s

Barrier solved model in 50 iterations and 8.15 seconds (5.51 work units)
Optimal objective 1.23769216e+07

Crossover log...

    8130 DPushes remaining with DInf 0.0000000e+00                 8s
       0 DPushes remaining with DInf 0.0000000e+00                 8s

    1268 PPushes remaining with PInf 0.0000000e+00                 8s
       0 PPushes remaining with PInf 0.0000000e+00                 9s

  Push phase complete: Pinf 0.0000000e+00, Dinf 1.3698448e-10      9s

Iteration    Objective       Primal Inf.    Dual Inf.      Time
    6588    1.2376922e+07   0.000000e+00   0.000000e+00      9s

Use crossover to convert LP symmetric solution to basic solution...
Crossover log...

       0 DPushes remaining with DInf 0.0000000e+00                 9s

  108332 PPushes remaining with PInf 0.0000000e+00                 9s
   19231 PPushes remaining with PInf 0.0000000e+00                10s
       0 PPushes remaining with PInf 0.0000000e+00                13s

  Push phase complete: Pinf 0.0000000e+00, Dinf 7.1229458e-11     13s

Iteration    Objective       Primal Inf.    Dual Inf.      Time
  114923    1.2376922e+07   0.000000e+00   0.000000e+00     13s

Solved in 114923 iterations and 13.29 seconds (11.17 work units)
Optimal objective  1.237692157e+07

User-callback calls 118696, time in user-callback 0.02 sec

Gurobi 10.0.1 (win64) logging started Sat Dec 30 18:35:18 2023

Set parameter LogFile to value "outputs/THESIS/symmetry1/gurobi/10weeks_ramping.txt"

Gurobi 10.0.1 (win64) logging started Sat Dec 30 18:35:22 2023

Set parameter LogFile to value "outputs/THESIS/symmetry1/gurobi/10weeks_ramping.txt"
Gurobi Optimizer version 10.0.1 build v10.0.1rc0 (win64)

CPU model: AMD Ryzen 7 5700U with Radeon Graphics, instruction set [SSE2|AVX|AVX2]
Thread count: 8 physical cores, 16 logical processors, using up to 16 threads

Optimize a model with 572668 rows, 287389 columns and 2012107 nonzeros
Model fingerprint: 0xea791003
Coefficient statistics:
  Matrix range     [1e-04, 1e+04]
  Objective range  [1e+00, 1e+00]
  Bounds range     [1e+02, 7e+04]
  RHS range        [1e+03, 7e+04]
Presolve removed 2 rows and 2 columns
Presolve time: 0.96s
Presolved: 572666 rows, 287387 columns, 1798638 nonzeros

Ordering time: 1.01s

Barrier statistics:
 Dense cols : 20
 AA' NZ     : 6.447e+05
 Factor NZ  : 4.101e+06 (roughly 140 MB of memory)
 Factor Ops : 2.549e+08 (less than 1 second per iteration)
 Threads    : 8

                  Objective                Residual
Iter       Primal          Dual         Primal    Dual     Compl     Time
   0   3.92958967e+09 -2.60229733e+10  2.23e+04 9.42e+00  9.21e+05     3s
   1   9.64477065e+08 -1.95778257e+10  1.77e+03 2.13e+01  1.19e+05     3s
   2   6.97636209e+08 -3.44632027e+09  9.09e-12 1.41e+00  1.37e+04     3s
   3   1.88370980e+08 -1.31013690e+08  2.69e-10 6.36e-03  9.57e+02     3s
   4   3.60956792e+07 -5.33549600e+06  4.00e-11 1.52e-05  1.20e+02     3s
   5   2.75276413e+07  1.47557978e+06  2.31e-10 1.11e-14  7.51e+01     3s
   6   2.18391221e+07  5.26427332e+06  7.02e-10 9.84e-15  4.77e+01     4s
   7   2.00237008e+07  5.92062630e+06  1.18e-09 1.03e-14  4.06e+01     4s
   8   1.75585609e+07  8.22019653e+06  9.14e-09 9.91e-15  2.68e+01     4s
   9   1.63558500e+07  8.95546629e+06  6.43e-09 8.98e-15  2.12e+01     4s
  10   1.61379881e+07  9.18383975e+06  1.71e-08 9.45e-15  2.00e+01     4s
  11   1.52254526e+07  9.70901526e+06  2.40e-08 8.94e-15  1.58e+01     4s
  12   1.47384339e+07  1.00036284e+07  6.63e-08 8.75e-15  1.36e+01     4s
  13   1.42740324e+07  1.02209320e+07  1.05e-07 8.38e-15  1.16e+01     4s
  14   1.41774045e+07  1.04716413e+07  1.40e-07 9.84e-15  1.06e+01     4s
  15   1.36622413e+07  1.06417381e+07  1.08e-07 9.84e-15  8.67e+00     4s
  16   1.34007566e+07  1.09875709e+07  1.27e-07 8.91e-15  6.93e+00     5s
  17   1.32997912e+07  1.10986001e+07  1.09e-07 9.75e-15  6.32e+00     5s
  18   1.31384456e+07  1.12957686e+07  9.13e-08 9.12e-15  5.29e+00     5s
  19   1.30365534e+07  1.14570220e+07  2.23e-07 9.27e-15  4.53e+00     5s
  20   1.29308170e+07  1.15690705e+07  1.32e-07 9.46e-15  3.91e+00     5s
  21   1.27765945e+07  1.17401335e+07  2.56e-07 8.91e-15  2.98e+00     5s
  22   1.27352916e+07  1.18960800e+07  1.02e-07 8.04e-15  2.41e+00     5s
  23   1.26486037e+07  1.20202693e+07  6.09e-08 9.34e-15  1.80e+00     5s
  24   1.26230797e+07  1.20953561e+07  2.21e-07 8.99e-15  1.51e+00     5s
  25   1.25470061e+07  1.21646658e+07  2.01e-07 8.47e-15  1.10e+00     6s
  26   1.25018024e+07  1.21849328e+07  1.04e-07 9.90e-15  9.10e-01     6s
  27   1.24867857e+07  1.22401250e+07  7.13e-08 8.93e-15  7.08e-01     6s
  28   1.24766588e+07  1.22790183e+07  9.09e-08 8.98e-15  5.67e-01     6s
  29   1.24504632e+07  1.23302228e+07  2.13e-07 9.57e-15  3.45e-01     6s
  30   1.24287774e+07  1.23438116e+07  9.85e-07 1.05e-14  2.44e-01     6s
  31   1.24073682e+07  1.23529776e+07  1.52e-06 8.73e-15  1.56e-01     6s
  32   1.23932967e+07  1.23657605e+07  7.62e-07 9.51e-15  7.89e-02     6s
  33   1.23865095e+07  1.23668495e+07  7.01e-07 2.05e-14  5.64e-02     7s
  34   1.23842288e+07  1.23706080e+07  7.09e-07 1.11e-14  3.91e-02     7s
  35   1.23818157e+07  1.23721604e+07  7.52e-07 9.56e-15  2.77e-02     7s
  36   1.23813638e+07  1.23738710e+07  7.05e-07 8.58e-15  2.15e-02     7s
  37   1.23794472e+07  1.23755166e+07  4.51e-07 9.27e-15  1.13e-02     7s
  38   1.23782052e+07  1.23756521e+07  2.37e-07 9.41e-15  7.32e-03     7s
  39   1.23780882e+07  1.23756693e+07  2.17e-07 1.07e-14  6.94e-03     7s
  40   1.23779189e+07  1.23758992e+07  1.89e-07 1.03e-14  5.79e-03     7s
  41   1.23776907e+07  1.23761455e+07  1.52e-07 9.35e-15  4.43e-03     7s
  42   1.23776654e+07  1.23762570e+07  1.45e-07 8.88e-15  4.04e-03     7s
  43   1.23774772e+07  1.23766623e+07  1.07e-07 1.18e-14  2.33e-03     7s
  44   1.23771292e+07  1.23768376e+07  3.71e-08 1.12e-14  8.35e-04     8s
  45   1.23769484e+07  1.23769098e+07  3.82e-09 1.13e-14  1.11e-04     8s
  46   1.23769273e+07  1.23769198e+07  7.52e-10 1.09e-14  2.14e-05     8s
  47   1.23769230e+07  1.23769211e+07  1.84e-10 6.53e-12  5.55e-06     8s
  48   1.23769217e+07  1.23769215e+07  1.73e-11 7.25e-12  5.76e-07     8s
  49   1.23769216e+07  1.23769216e+07  2.58e-10 2.12e-11  1.53e-09     8s
  50   1.23769216e+07  1.23769216e+07  1.11e-10 2.09e-11  4.55e-15     8s

Barrier solved model in 50 iterations and 8.16 seconds (5.51 work units)
Optimal objective 1.23769216e+07

Crossover log...

    8130 DPushes remaining with DInf 0.0000000e+00                 8s
       0 DPushes remaining with DInf 0.0000000e+00                 9s

    1268 PPushes remaining with PInf 0.0000000e+00                 9s
       0 PPushes remaining with PInf 0.0000000e+00                 9s

  Push phase complete: Pinf 0.0000000e+00, Dinf 1.3698448e-10      9s

Iteration    Objective       Primal Inf.    Dual Inf.      Time
    6588    1.2376922e+07   0.000000e+00   0.000000e+00      9s

Use crossover to convert LP symmetric solution to basic solution...
Crossover log...

       0 DPushes remaining with DInf 0.0000000e+00                 9s

  108332 PPushes remaining with PInf 0.0000000e+00                 9s
   19231 PPushes remaining with PInf 0.0000000e+00                10s
       0 PPushes remaining with PInf 0.0000000e+00                13s

  Push phase complete: Pinf 0.0000000e+00, Dinf 7.1229458e-11     13s

Iteration    Objective       Primal Inf.    Dual Inf.      Time
  114923    1.2376922e+07   0.000000e+00   0.000000e+00     13s

Solved in 114923 iterations and 13.32 seconds (11.17 work units)
Optimal objective  1.237692157e+07

User-callback calls 118673, time in user-callback 0.02 sec
